## FHIaims input file generated by critic2.
lattice_vector      4.26174121      0.00000000      0.00000000
lattice_vector      0.00000000      4.26173987     -0.00000000
lattice_vector      0.00000000     -0.00000000      4.26173987
atom_frac       0.00000000      0.00000000     -0.00000001 Mg
atom_frac       0.00000000      0.49999999      0.50000001 Mg
atom_frac       0.50000000      0.00000001      0.50000001 Mg
atom_frac       0.50000000      0.49999999     -0.00000001 Mg
atom_frac       0.50000000      0.50000001      0.49999999 O
atom_frac       0.50000000     -0.00000001      0.00000001 O
atom_frac      -0.00000000      0.50000000      0.00000001 O
atom_frac      -0.00000000     -0.00000001      0.49999999 O
