#===============================================================================
# Created using the Atomic Simulation Environment (ASE)

# Mon Sep 30 17:34:24 2024

#=======================================================
lattice_vector 3.9519588950000002 0.0000000000000000 0.0000000000000000 
lattice_vector 0.0000000000000000 3.9519588950000002 0.0000000000000000 
lattice_vector 0.0000000000000000 0.0000000000000000 3.9519588950000002 
atom 1.9759802774113677 1.9759802774113677 1.9759802774113677 Sr
atom 0.0000000000000000 0.0000000000000000 0.0000000000000000 Ti
atom 1.9720283185163676 0.0000000000000000 0.0000000000000000 O
atom 0.0000000000000000 1.9759802774113677 0.0000000000000000 O
atom 0.0000000000000000 0.0000000000000000 1.9759802774113677 O
