#===============================================================================
# Created using the Atomic Simulation Environment (ASE)

# Mon Sep 30 17:21:46 2024

#=======================================================
lattice_vector 8.1899999999999995 0.0000000000000000 0.0000000000000000 
lattice_vector 0.0000000000000000 12.5879999999999992 0.0000000000000000 
lattice_vector 0.0000000000000000 0.0000000000000000 6.7729999999999997 
atom 2.4420941999999997 0.7410555599999999 2.6032025500000002 C
atom 2.4420941999999997 5.5529444400000001 5.9897025499999996 C
atom 6.5370941999999994 7.0350555599999991 0.7832974500000000 C
atom 6.5370941999999994 11.8469444399999997 4.1697974499999999 C
atom 5.9529833999999990 2.3484172800000001 6.2911010499999991 C
atom 5.9529833999999990 3.9455827199999995 2.9046010500000001 C
atom 1.8579834000000000 8.6424172799999983 3.8683989500000000 C
atom 1.8579834000000000 10.2395827199999996 0.4818989500000000 C
atom 3.2683013999999999 1.4740547999999998 3.4454928299999996 C
atom 3.2683013999999999 4.8199452000000003 0.0589928300000000 C
atom 7.3633013999999992 7.7680547999999989 6.7140071699999995 C
atom 7.3633013999999992 11.1139451999999999 3.3275071700000001 C
atom 5.0876279999999996 1.3805259599999999 0.0121914000000000 C
atom 5.0876279999999996 4.9134740399999997 3.3986914000000001 C
atom 0.9926280000000000 7.6745259600000004 3.3743085999999995 C
atom 0.9926280000000000 11.2074740399999992 6.7608085999999998 C
atom 2.4835355999999997 2.4951933600000000 3.9164195199999998 C
atom 2.4835355999999997 3.7988066399999996 0.5299195200000000 C
atom 6.5785355999999995 8.7891933599999987 6.2430804799999997 C
atom 6.5785355999999995 10.0928066399999992 2.8565804799999999 C
atom 5.8269393000000003 0.6714439200000000 0.9237017399999999 C
atom 5.8269393000000003 5.6225560799999998 4.3102017399999992 C
atom 1.7319392999999998 6.9654439200000002 2.4627982600000000 C
atom 1.7319392999999998 11.9165560799999994 5.8492982600000003 C
atom 0.5016375000000000 2.7490933199999996 3.5760085399999997 H
atom 0.5016375000000000 3.5449066800000000 0.1895085400000000 H
atom 4.5966374999999999 9.0430933199999988 6.5834914599999994 H
atom 4.5966374999999999 9.8389066799999991 3.1969914600000000 H
atom 7.7177645999999989 1.0839526800000001 1.5327976299999999 H
atom 7.7177645999999989 5.2100473199999993 4.9125246300000001 H
atom 3.6227646000000000 7.3779526799999999 1.8604753699999999 H
atom 3.6227646000000000 11.5040473199999997 5.2469753699999995 H
atom 2.6050751999999995 3.2289478799999998 4.6443138299999998 H
atom 2.6050751999999995 3.0650521199999998 1.2578138299999999 H
atom 6.7000751999999997 9.5229478800000003 5.5151861699999998 H
atom 6.7000751999999997 9.3590521199999994 2.1286861699999999 H
atom 5.6044988999999994 12.5230459199999977 1.6243685899999998 H
atom 5.6044988999999994 6.3589540800000002 5.0108685899999994 H
atom 1.5094988999999999 6.2290459199999999 1.7621314100000001 H
atom 1.5094988999999999 0.0649540800000000 5.1486314100000001 H
atom 4.1589638999999998 1.2640869599999998 3.6364236999999999 H
atom 4.1589638999999998 5.0299130399999994 0.2499237000000000 H
atom 0.0639639000000000 7.5580869599999989 6.5230762999999996 H
atom 0.0639639000000000 11.3239130399999990 3.1365762999999998 H
atom 4.1922153000000000 1.2854865600000001 6.5339808299999991 H
atom 4.1922153000000000 5.0085134399999998 3.1474808300000001 H
atom 0.0972153000000000 7.5794865599999994 3.6255191700000000 H
atom 0.0972153000000000 11.3025134400000002 0.2390191700000000 H
atom 2.6271882000000000 12.5595511199999983 2.1784677199999996 H
atom 2.6271882000000000 6.3224488800000005 5.5649677200000003 H
atom 6.7221881999999988 6.2655511199999996 1.2080322799999998 H
atom 6.7221881999999988 0.0284488800000000 4.5945322799999992 H
atom 5.7682988999999996 3.0163365599999996 5.7200016900000001 H
atom 5.7682988999999996 3.2776634400000000 2.3335016899999999 H
atom 1.6732988999999998 9.3103365599999997 4.4394983099999994 H
atom 1.6732988999999998 9.5716634399999982 1.0529983100000000 H
atom 1.2755105999999998 2.3204719199999997 3.3718703199999998 N
atom 1.2755105999999998 3.9735280799999999 6.7583703199999992 N
atom 5.3705105999999994 8.6144719199999980 0.0146296800000000 N
atom 5.3705105999999994 10.2675280799999999 3.4011296800000004 N
atom 7.0383221999999996 1.2356380800000000 0.9432079799999999 N
atom 7.0383221999999996 5.0583619199999994 4.3297079800000002 N
atom 2.9433221999999994 7.5296380799999998 2.4432920199999999 N
atom 2.9433221999999994 11.3523619199999981 5.8297920199999993 N
atom 1.2126113999999999 1.2420579599999999 2.5584330199999998 N
atom 1.2126113999999999 5.0519420400000001 5.9449330199999997 N
atom 5.3076113999999999 7.5360579599999999 0.8280669799999999 N
atom 5.3076113999999999 11.3459420399999988 4.2145669799999999 N
atom 7.1500338000000001 2.2790573999999997 0.0900131700000000 N
atom 7.1500338000000001 4.0149425999999995 3.4765131700000000 N
atom 3.0550337999999999 8.5730573999999997 3.2964868299999996 N
atom 3.0550337999999999 10.3089425999999982 6.6829868299999999 N
