#===============================================================================
# Created using the Atomic Simulation Environment (ASE)

# Mon Sep 30 17:21:32 2024

#=======================================================
lattice_vector 4.2617412100000003 0.0000000000000000 0.0000000000000000 
lattice_vector 0.0000000000000000 4.2617398700000004 -0.0000000000000000 
lattice_vector 0.0000000000000000 -0.0000000000000000 4.2617398700000004 
atom -0.0042617412100000 0.0000000000000000 -0.0000000426173987 Mg
atom 0.0000000000000000 2.1308698923826017 2.1308699776173992 Mg
atom 2.1308706050000001 0.0000000426173987 2.1308699776173992 Mg
atom 2.1308706050000001 2.1308698923826017 -0.0000000426173987 Mg
atom 2.1308706050000001 2.1308699776173992 2.1308698923826017 O
atom 2.1308706050000001 -0.0000000426173987 0.0000000426173987 O
atom 0.0000000000000000 2.1308699350000002 0.0000000426173987 O
atom 0.0000000000000000 -0.0000000426173987 2.1308698923826017 O
