## FHIaims input file generated by critic2.
lattice_vector 3.9519588950       0.0000000000       0.0000000000       
lattice_vector 0.0000000000       3.9519588950       0.0000000000       
lattice_vector 0.0000000000       0.0000000000       3.9519588950       
atom_frac  0.5000002100       0.5000002100       0.5000002100       Sr
atom_frac  0.0000000000       0.0000000000       0.0000000000       Ti
atom_frac  0.5000002100       0.0000000000       0.0000000000       O 
atom_frac  0.0000000000       0.5000002100       0.0000000000       O 
atom_frac  0.0000000000       0.0000000000       0.5000002100       O 
