## FHIaims input file generated by critic2.
lattice_vector 8.1900000000       0.0000000000       0.0000000000       
lattice_vector 0.0000000000       12.5880000000      0.0000000000       
lattice_vector 0.0000000000       0.0000000000       6.7730000000       
atom_frac  0.2981800000       0.0588700000       0.3843500000       C 
atom_frac  0.2981800000       0.4411300000       0.8843500000       C 
atom_frac  0.7981800000       0.5588700000       0.1156500000       C 
atom_frac  0.7981800000       0.9411300000       0.6156500000       C 
atom_frac  0.7268600000       0.1865600000       0.9288500000       C 
atom_frac  0.7268600000       0.3134400000       0.4288500000       C 
atom_frac  0.2268600000       0.6865600000       0.5711500000       C 
atom_frac  0.2268600000       0.8134400000       0.0711500000       C 
atom_frac  0.3990600000       0.1171000000       0.5087100000       C 
atom_frac  0.3990600000       0.3829000000       0.0087100000       C 
atom_frac  0.8990600000       0.6171000000       0.9912900000       C 
atom_frac  0.8990600000       0.8829000000       0.4912900000       C 
atom_frac  0.6212000000       0.1096700000       0.0018000000       C 
atom_frac  0.6212000000       0.3903300000       0.5018000000       C 
atom_frac  0.1212000000       0.6096700000       0.4982000000       C 
atom_frac  0.1212000000       0.8903300000       0.9982000000       C 
atom_frac  0.3032400000       0.1982200000       0.5782400000       C 
atom_frac  0.3032400000       0.3017800000       0.0782400000       C 
atom_frac  0.8032400000       0.6982200000       0.9217600000       C 
atom_frac  0.8032400000       0.8017800000       0.4217600000       C 
atom_frac  0.7114700000       0.0533400000       0.1363800000       C 
atom_frac  0.7114700000       0.4466600000       0.6363800000       C 
atom_frac  0.2114700000       0.5533400000       0.3636200000       C 
atom_frac  0.2114700000       0.9466600000       0.8636200000       C 
atom_frac  0.0612500000       0.2183900000       0.5279800000       H 
atom_frac  0.0612500000       0.2816100000       0.0279800000       H 
atom_frac  0.5612500000       0.7183900000       0.9720200000       H 
atom_frac  0.5612500000       0.7816100000       0.4720200000       H 
atom_frac  0.9423400000       0.0861100000       0.2253100000       H 
atom_frac  0.9423400000       0.4138900000       0.7253100000       H 
atom_frac  0.4423400000       0.5861100000       0.2746900000       H 
atom_frac  0.4423400000       0.9138900000       0.7746900000       H 
atom_frac  0.3180800000       0.2565100000       0.6857100000       H 
atom_frac  0.3180800000       0.2434900000       0.1857100000       H 
atom_frac  0.8180800000       0.7565100000       0.8142900000       H 
atom_frac  0.8180800000       0.7434900000       0.3142900000       H 
atom_frac  0.6843100000       0.9948400000       0.2398300000       H 
atom_frac  0.6843100000       0.5051600000       0.7398300000       H 
atom_frac  0.1843100000       0.4948400000       0.2601700000       H 
atom_frac  0.1843100000       0.0051600000       0.7601700000       H 
atom_frac  0.5078100000       0.1004200000       0.5369000000       H 
atom_frac  0.5078100000       0.3995800000       0.0369000000       H 
atom_frac  0.0078100000       0.6004200000       0.9631000000       H 
atom_frac  0.0078100000       0.8995800000       0.4631000000       H 
atom_frac  0.5118700000       0.1021200000       0.9647100000       H 
atom_frac  0.5118700000       0.3978800000       0.4647100000       H 
atom_frac  0.0118700000       0.6021200000       0.5352900000       H 
atom_frac  0.0118700000       0.8978800000       0.0352900000       H 
atom_frac  0.3207800000       0.9977400000       0.3216400000       H 
atom_frac  0.3207800000       0.5022600000       0.8216400000       H 
atom_frac  0.8207800000       0.4977400000       0.1783600000       H 
atom_frac  0.8207800000       0.0022600000       0.6783600000       H 
atom_frac  0.7043100000       0.2396200000       0.8445300000       H 
atom_frac  0.7043100000       0.2603800000       0.3445300000       H 
atom_frac  0.2043100000       0.7396200000       0.6554700000       H 
atom_frac  0.2043100000       0.7603800000       0.1554700000       H 
atom_frac  0.1557400000       0.1843400000       0.4978400000       N 
atom_frac  0.1557400000       0.3156600000       0.9978400000       N 
atom_frac  0.6557400000       0.6843400000       0.0021600000       N 
atom_frac  0.6557400000       0.8156600000       0.5021600000       N 
atom_frac  0.8593800000       0.0981600000       0.1392600000       N 
atom_frac  0.8593800000       0.4018400000       0.6392600000       N 
atom_frac  0.3593800000       0.5981600000       0.3607400000       N 
atom_frac  0.3593800000       0.9018400000       0.8607400000       N 
atom_frac  0.1480600000       0.0986700000       0.3777400000       N 
atom_frac  0.1480600000       0.4013300000       0.8777400000       N 
atom_frac  0.6480600000       0.5986700000       0.1222600000       N 
atom_frac  0.6480600000       0.9013300000       0.6222600000       N 
atom_frac  0.8730200000       0.1810500000       0.0132900000       N 
atom_frac  0.8730200000       0.3189500000       0.5132900000       N 
atom_frac  0.3730200000       0.6810500000       0.4867100000       N 
atom_frac  0.3730200000       0.8189500000       0.9867100000       N 
